benchmarks_CP/INST_36x36/45/inst36x36_45_64.dzn
S=6;
start=[|
-1,	-1,	31,	2,	29,	-1,	-1,	19,	21,	-1,	4,	22,	-1,	-1,	-1,	-1,	17,	-1,	-1,	15,	-1,	-1,	18,	-1,	-1,	32,	30,	-1,	25,	-1,	-1,	36,	1,	24,	14,	7|
7,	19,	-1,	-1,	13,	-1,	29,	-1,	31,	-1,	-1,	8,	-1,	32,	21,	2,	-1,	-1,	3,	-1,	-1,	25,	4,	27,	15,	-1,	11,	24,	-1,	18,	-1,	5,	-1,	-1,	12,	-1|
-1,	-1,	32,	33,	9,	-1,	-1,	30,	-1,	-1,	-1,	36,	29,	6,	4,	-1,	-1,	-1,	17,	28,	-1,	-1,	24,	22,	-1,	-1,	-1,	-1,	-1,	-1,	10,	23,	8,	-1,	-1,	2|
26,	17,	4,	1,	-1,	22,	9,	-1,	15,	-1,	-1,	7,	14,	5,	23,	-1,	-1,	34,	-1,	12,	-1,	-1,	-1,	-1,	-1,	-1,	-1,	31,	10,	36,	18,	11,	-1,	6,	-1,	-1|
21,	-1,	-1,	36,	-1,	6,	17,	-1,	26,	-1,	28,	-1,	12,	-1,	3,	15,	-1,	-1,	20,	33,	14,	-1,	-1,	35,	7,	-1,	2,	29,	22,	-1,	34,	-1,	-1,	30,	-1,	4|
-1,	-1,	-1,	-1,	24,	18,	14,	-1,	-1,	33,	-1,	-1,	26,	8,	25,	36,	30,	-1,	-1,	31,	21,	10,	-1,	32,	17,	-1,	4,	-1,	-1,	-1,	-1,	-1,	-1,	9,	-1,	3|
-1,	-1,	3,	-1,	23,	13,	-1,	-1,	-1,	-1,	-1,	2,	-1,	21,	-1,	14,	-1,	-1,	5,	-1,	10,	-1,	-1,	15,	-1,	-1,	-1,	11,	8,	30,	16,	26,	-1,	1,	-1,	-1|
-1,	-1,	-1,	27,	-1,	-1,	-1,	26,	-1,	9,	15,	-1,	-1,	-1,	2,	-1,	34,	-1,	28,	-1,	-1,	1,	-1,	25,	-1,	-1,	-1,	-1,	-1,	33,	-1,	13,	36,	-1,	-1,	22|
-1,	-1,	6,	-1,	-1,	-1,	33,	28,	23,	18,	-1,	-1,	-1,	-1,	27,	25,	-1,	-1,	22,	14,	2,	36,	34,	30,	31,	12,	3,	-1,	20,	10,	-1,	-1,	-1,	17,	9,	-1|
-1,	-1,	-1,	-1,	-1,	9,	21,	-1,	-1,	24,	20,	16,	-1,	-1,	5,	-1,	23,	-1,	-1,	13,	18,	6,	-1,	-1,	-1,	-1,	27,	35,	1,	29,	-1,	3,	19,	2,	34,	-1|
34,	-1,	24,	22,	-1,	-1,	27,	-1,	-1,	-1,	-1,	-1,	18,	4,	8,	17,	-1,	15,	-1,	-1,	26,	-1,	16,	-1,	-1,	-1,	32,	-1,	-1,	28,	-1,	-1,	-1,	-1,	10,	-1|
2,	-1,	-1,	17,	-1,	-1,	1,	14,	-1,	19,	7,	-1,	6,	-1,	-1,	-1,	20,	-1,	4,	-1,	-1,	21,	33,	24,	34,	-1,	-1,	-1,	36,	-1,	31,	-1,	-1,	-1,	-1,	-1|
-1,	-1,	-1,	-1,	-1,	-1,	-1,	9,	20,	-1,	-1,	21,	10,	2,	-1,	-1,	22,	-1,	19,	-1,	-1,	4,	-1,	-1,	-1,	31,	-1,	7,	23,	-1,	15,	-1,	-1,	-1,	-1,	12|
23,	-1,	13,	-1,	-1,	-1,	28,	4,	-1,	-1,	-1,	-1,	-1,	-1,	-1,	-1,	29,	-1,	-1,	1,	32,	-1,	-1,	-1,	10,	-1,	-1,	-1,	-1,	-1,	-1,	31,	17,	-1,	35,	6|
11,	-1,	15,	28,	-1,	-1,	3,	-1,	-1,	2,	13,	-1,	-1,	26,	-1,	-1,	24,	6,	-1,	22,	17,	-1,	-1,	31,	5,	-1,	-1,	14,	32,	1,	36,	-1,	21,	-1,	-1,	8|
-1,	-1,	12,	24,	-1,	-1,	34,	-1,	-1,	-1,	10,	14,	13,	20,	35,	-1,	-1,	-1,	-1,	29,	-1,	26,	6,	23,	28,	-1,	-1,	-1,	30,	4,	-1,	18,	5,	-1,	-1,	-1|
-1,	-1,	-1,	5,	-1,	-1,	15,	-1,	-1,	-1,	22,	-1,	23,	-1,	-1,	19,	-1,	1,	-1,	-1,	-1,	33,	-1,	13,	24,	2,	-1,	26,	-1,	17,	9,	10,	-1,	-1,	20,	29|
-1,	-1,	-1,	9,	-1,	-1,	25,	33,	-1,	-1,	-1,	-1,	4,	-1,	18,	5,	21,	-1,	14,	-1,	-1,	-1,	-1,	8,	12,	13,	35,	-1,	-1,	20,	-1,	-1,	-1,	-1,	24,	11|
31,	-1,	-1,	26,	-1,	30,	-1,	32,	-1,	13,	-1,	-1,	-1,	35,	29,	-1,	-1,	-1,	-1,	-1,	-1,	20,	-1,	-1,	6,	11,	36,	-1,	7,	15,	4,	-1,	16,	34,	-1,	18|
12,	24,	-1,	-1,	16,	-1,	-1,	-1,	-1,	-1,	-1,	17,	32,	9,	-1,	27,	-1,	-1,	-1,	-1,	-1,	-1,	14,	18,	23,	3,	31,	21,	-1,	25,	-1,	-1,	-1,	28,	-1,	-1|
22,	25,	8,	-1,	2,	-1,	-1,	-1,	9,	-1,	3,	-1,	-1,	18,	-1,	-1,	-1,	-1,	-1,	24,	27,	23,	7,	11,	-1,	-1,	-1,	30,	5,	-1,	-1,	1,	-1,	-1,	36,	31|
3,	-1,	-1,	10,	-1,	23,	22,	2,	-1,	-1,	-1,	-1,	16,	24,	36,	-1,	-1,	-1,	-1,	30,	31,	-1,	-1,	-1,	20,	-1,	18,	-1,	-1,	27,	19,	29,	-1,	-1,	-1,	-1|
-1,	-1,	-1,	-1,	21,	-1,	23,	20,	18,	-1,	11,	35,	-1,	-1,	-1,	-1,	-1,	-1,	-1,	17,	-1,	2,	-1,	-1,	26,	10,	-1,	-1,	-1,	-1,	6,	-1,	-1,	5,	-1,	30|
-1,	-1,	7,	-1,	18,	-1,	6,	15,	-1,	8,	34,	-1,	31,	-1,	-1,	20,	-1,	-1,	10,	-1,	-1,	28,	-1,	4,	9,	-1,	22,	-1,	-1,	-1,	-1,	-1,	-1,	-1,	-1,	23|
-1,	22,	10,	3,	33,	7,	4,	5,	28,	-1,	-1,	-1,	-1,	-1,	-1,	-1,	-1,	-1,	34,	2,	20,	9,	-1,	19,	-1,	-1,	14,	25,	-1,	32,	27,	-1,	26,	-1,	-1,	-1|
8,	-1,	-1,	-1,	-1,	17,	-1,	-1,	-1,	-1,	-1,	-1,	-1,	-1,	1,	28,	27,	-1,	-1,	25,	11,	-1,	26,	33,	-1,	-1,	15,	18,	-1,	-1,	13,	6,	-1,	31,	-1,	16|
-1,	-1,	26,	31,	30,	-1,	2,	27,	-1,	-1,	-1,	29,	15,	-1,	-1,	-1,	8,	4,	-1,	32,	-1,	-1,	-1,	-1,	11,	6,	10,	-1,	34,	-1,	35,	-1,	22,	36,	-1,	-1|
-1,	-1,	18,	-1,	35,	-1,	-1,	25,	-1,	23,	19,	20,	-1,	-1,	24,	-1,	-1,	-1,	-1,	-1,	-1,	15,	30,	36,	-1,	28,	-1,	-1,	31,	22,	14,	8,	-1,	10,	-1,	17|
-1,	32,	-1,	14,	-1,	-1,	-1,	-1,	-1,	-1,	-1,	-1,	2,	-1,	22,	-1,	-1,	-1,	-1,	23,	-1,	-1,	31,	1,	30,	-1,	-1,	19,	-1,	-1,	-1,	-1,	24,	-1,	-1,	-1|
-1,	-1,	1,	-1,	-1,	24,	-1,	16,	-1,	-1,	-1,	33,	-1,	-1,	-1,	9,	25,	32,	27,	35,	6,	-1,	22,	-1,	8,	-1,	-1,	-1,	26,	5,	-1,	30,	23,	-1,	-1,	-1|
-1,	-1,	9,	8,	12,	-1,	16,	-1,	2,	-1,	18,	-1,	17,	-1,	10,	-1,	-1,	27,	11,	-1,	33,	22,	-1,	-1,	1,	-1,	-1,	20,	14,	7,	24,	-1,	-1,	19,	26,	-1|
13,	-1,	21,	-1,	22,	1,	-1,	-1,	10,	-1,	25,	-1,	-1,	-1,	-1,	4,	2,	8,	-1,	18,	-1,	17,	-1,	3,	-1,	-1,	-1,	-1,	12,	24,	5,	-1,	-1,	35,	11,	14|
-1,	-1,	-1,	18,	10,	-1,	-1,	-1,	22,	4,	-1,	12,	36,	34,	16,	-1,	-1,	19,	32,	-1,	-1,	13,	-1,	7,	25,	35,	-1,	27,	-1,	-1,	1,	-1,	-1,	-1,	30,	-1|
5,	7,	-1,	-1,	6,	25,	32,	-1,	-1,	21,	-1,	30,	-1,	1,	13,	24,	18,	-1,	-1,	-1,	-1,	-1,	-1,	-1,	22,	36,	28,	10,	33,	-1,	-1,	-1,	29,	3,	-1,	15|
-1,	-1,	20,	4,	34,	33,	8,	11,	-1,	28,	-1,	-1,	-1,	-1,	-1,	30,	-1,	26,	-1,	-1,	-1,	27,	35,	14,	-1,	-1,	-1,	-1,	-1,	19,	23,	7,	-1,	-1,	-1,	9|
19,	36,	-1,	15,	28,	-1,	35,	-1,	-1,	-1,	-1,	-1,	-1,	-1,	-1,	7,	-1,	-1,	-1,	16,	-1,	-1,	-1,	-1,	4,	26,	-1,	-1,	-1,	-1,	-1,	17,	10,	22,	2,	13|];
